NAME : kroE100-C-3-1-a__wo_fusion_gate_same_priority_ls20__27019.tour
COMMENT : Length = 27019.000
COMMENT : Generated by evaluate_ctspd.py for wo_fusion_gate_same_priority_ls20
TYPE : TOUR
DIMENSION : 100
TOUR_SECTION
60
50
49
28
36
95
64
23
15
20
56
62
84
17
1
52
14
44
72
89
81
71
61
73
16
79
26
46
3
47
83
69
51
21
74
7
98
59
58
32
12
76
63
88
35
40
99
45
54
25
97
10
80
57
65
8
31
66
9
13
75
41
87
67
27
92
82
4
2
11
96
85
77
37
70
6
93
30
42
5
48
90
91
55
34
53
78
100
29
24
18
94
19
86
43
39
22
33
38
68
-1
EOF
